mip-instances/wsg_0189.lp
\* Source Pyomo model name=unknown *\

min 
x151:
+1 x1
+1 x10
+1 x100
+1 x101
+1 x102
+1 x103
+1 x104
+1 x105
+1 x106
+1 x107
+1 x108
+1 x109
+1 x11
+1 x110
+1 x111
+1 x112
+1 x113
+1 x114
+1 x115
+1 x116
+1 x117
+1 x118
+1 x119
+1 x12
+1 x120
+1 x121
+1 x122
+1 x123
+1 x124
+1 x125
+1 x126
+1 x127
+1 x128
+1 x129
+1 x13
+1 x130
+1 x131
+1 x132
+1 x133
+1 x134
+1 x135
+1 x136
+1 x137
+1 x138
+1 x139
+1 x14
+1 x140
+1 x141
+1 x142
+1 x143
+1 x144
+1 x145
+1 x146
+1 x147
+1 x148
+1 x149
+1 x15
+1 x150
+1 x16
+1 x17
+1 x18
+1 x19
+1 x2
+1 x20
+1 x21
+1 x22
+1 x23
+1 x24
+1 x25
+1 x26
+1 x27
+1 x28
+1 x29
+1 x3
+1 x30
+1 x31
+1 x32
+1 x33
+1 x34
+1 x35
+1 x36
+1 x37
+1 x38
+1 x39
+1 x4
+1 x40
+1 x41
+1 x42
+1 x43
+1 x44
+1 x45
+1 x46
+1 x47
+1 x48
+1 x49
+1 x5
+1 x50
+1 x51
+1 x52
+1 x53
+1 x54
+1 x55
+1 x56
+1 x57
+1 x58
+1 x59
+1 x6
+1 x60
+1 x61
+1 x62
+1 x63
+1 x64
+1 x65
+1 x66
+1 x67
+1 x68
+1 x69
+1 x7
+1 x70
+1 x71
+1 x72
+1 x73
+1 x74
+1 x75
+1 x76
+1 x77
+1 x78
+1 x79
+1 x8
+1 x80
+1 x81
+1 x82
+1 x83
+1 x84
+1 x85
+1 x86
+1 x87
+1 x88
+1 x89
+1 x9
+1 x90
+1 x91
+1 x92
+1 x93
+1 x94
+1 x95
+1 x96
+1 x97
+1 x98
+1 x99

s.t.

c_l_x152_:
+1 x1
+1 x2
>= 1

c_l_x153_:
+1 x1
+1 x57
>= 1

c_l_x154_:
+1 x2
+1 x63
>= 1

c_l_x155_:
+1 x2
+1 x70
>= 1

c_l_x156_:
+1 x14
+1 x3
>= 1

c_l_x157_:
+1 x4
+1 x5
>= 1

c_l_x158_:
+1 x5
+1 x6
>= 1

c_l_x159_:
+1 x6
+1 x7
>= 1

c_l_x160_:
+1 x7
+1 x8
>= 1

c_l_x161_:
+1 x8
+1 x9
>= 1

c_l_x162_:
+1 x10
+1 x9
>= 1

c_l_x163_:
+1 x10
+1 x11
>= 1

c_l_x164_:
+1 x11
+1 x12
>= 1

c_l_x165_:
+1 x12
+1 x13
>= 1

c_l_x166_:
+1 x13
+1 x15
>= 1

c_l_x167_:
+1 x14
+1 x25
>= 1

c_l_x168_:
+1 x15
+1 x16
>= 1

c_l_x169_:
+1 x16
+1 x17
>= 1

c_l_x170_:
+1 x17
+1 x18
>= 1

c_l_x171_:
+1 x18
+1 x19
>= 1

c_l_x172_:
+1 x19
+1 x20
>= 1

c_l_x173_:
+1 x20
+1 x21
>= 1

c_l_x174_:
+1 x21
+1 x22
>= 1

c_l_x175_:
+1 x22
+1 x23
>= 1

c_l_x176_:
+1 x23
+1 x24
>= 1

c_l_x177_:
+1 x24
+1 x26
>= 1

c_l_x178_:
+1 x25
+1 x36
>= 1

c_l_x179_:
+1 x26
+1 x27
>= 1

c_l_x180_:
+1 x27
+1 x28
>= 1

c_l_x181_:
+1 x28
+1 x29
>= 1

c_l_x182_:
+1 x29
+1 x30
>= 1

c_l_x183_:
+1 x30
+1 x31
>= 1

c_l_x184_:
+1 x31
+1 x32
>= 1

c_l_x185_:
+1 x32
+1 x33
>= 1

c_l_x186_:
+1 x33
+1 x34
>= 1

c_l_x187_:
+1 x34
+1 x35
>= 1

c_l_x188_:
+1 x35
+1 x37
>= 1

c_l_x189_:
+1 x36
+1 x47
>= 1

c_l_x190_:
+1 x37
+1 x38
>= 1

c_l_x191_:
+1 x38
+1 x39
>= 1

c_l_x192_:
+1 x39
+1 x40
>= 1

c_l_x193_:
+1 x40
+1 x41
>= 1

c_l_x194_:
+1 x41
+1 x42
>= 1

c_l_x195_:
+1 x42
+1 x43
>= 1

c_l_x196_:
+1 x43
+1 x44
>= 1

c_l_x197_:
+1 x44
+1 x45
>= 1

c_l_x198_:
+1 x45
+1 x46
>= 1

c_l_x199_:
+1 x46
+1 x48
>= 1

c_l_x200_:
+1 x47
+1 x58
>= 1

c_l_x201_:
+1 x48
+1 x49
>= 1

c_l_x202_:
+1 x49
+1 x50
>= 1

c_l_x203_:
+1 x50
+1 x51
>= 1

c_l_x204_:
+1 x51
+1 x52
>= 1

c_l_x205_:
+1 x52
+1 x53
>= 1

c_l_x206_:
+1 x53
+1 x54
>= 1

c_l_x207_:
+1 x54
+1 x55
>= 1

c_l_x208_:
+1 x55
+1 x56
>= 1

c_l_x209_:
+1 x56
+1 x57
>= 1

c_l_x210_:
+1 x58
+1 x59
>= 1

c_l_x211_:
+1 x59
+1 x60
>= 1

c_l_x212_:
+1 x60
+1 x61
>= 1

c_l_x213_:
+1 x61
+1 x62
>= 1

c_l_x214_:
+1 x62
+1 x64
>= 1

c_l_x215_:
+1 x63
+1 x74
>= 1

c_l_x216_:
+1 x64
+1 x65
>= 1

c_l_x217_:
+1 x65
+1 x66
>= 1

c_l_x218_:
+1 x66
+1 x67
>= 1

c_l_x219_:
+1 x67
+1 x68
>= 1

c_l_x220_:
+1 x68
+1 x69
>= 1

c_l_x221_:
+1 x69
+1 x70
>= 1

c_l_x222_:
+1 x71
+1 x72
>= 1

c_l_x223_:
+1 x72
+1 x73
>= 1

c_l_x224_:
+1 x73
+1 x75
>= 1

c_l_x225_:
+1 x74
+1 x85
>= 1

c_l_x226_:
+1 x75
+1 x76
>= 1

c_l_x227_:
+1 x76
+1 x77
>= 1

c_l_x228_:
+1 x77
+1 x78
>= 1

c_l_x229_:
+1 x78
+1 x79
>= 1

c_l_x230_:
+1 x79
+1 x80
>= 1

c_l_x231_:
+1 x80
+1 x81
>= 1

c_l_x232_:
+1 x81
+1 x82
>= 1

c_l_x233_:
+1 x82
+1 x83
>= 1

c_l_x234_:
+1 x83
+1 x84
>= 1

c_l_x235_:
+1 x84
+1 x86
>= 1

c_l_x236_:
+1 x85
+1 x96
>= 1

c_l_x237_:
+1 x86
+1 x87
>= 1

c_l_x238_:
+1 x87
+1 x88
>= 1

c_l_x239_:
+1 x88
+1 x89
>= 1

c_l_x240_:
+1 x89
+1 x90
>= 1

c_l_x241_:
+1 x90
+1 x91
>= 1

c_l_x242_:
+1 x91
+1 x92
>= 1

c_l_x243_:
+1 x92
+1 x93
>= 1

c_l_x244_:
+1 x136
+1 x93
>= 1

c_l_x245_:
+1 x94
+1 x95
>= 1

c_l_x246_:
+1 x95
+1 x97
>= 1

c_l_x247_:
+1 x107
+1 x96
>= 1

c_l_x248_:
+1 x97
+1 x98
>= 1

c_l_x249_:
+1 x98
+1 x99
>= 1

c_l_x250_:
+1 x100
+1 x99
>= 1

c_l_x251_:
+1 x100
+1 x101
>= 1

c_l_x252_:
+1 x101
+1 x102
>= 1

c_l_x253_:
+1 x102
+1 x103
>= 1

c_l_x254_:
+1 x103
+1 x104
>= 1

c_l_x255_:
+1 x104
+1 x105
>= 1

c_l_x256_:
+1 x105
+1 x106
>= 1

c_l_x257_:
+1 x106
+1 x108
>= 1

c_l_x258_:
+1 x107
+1 x118
>= 1

c_l_x259_:
+1 x108
+1 x109
>= 1

c_l_x260_:
+1 x109
+1 x110
>= 1

c_l_x261_:
+1 x110
+1 x111
>= 1

c_l_x262_:
+1 x111
+1 x112
>= 1

c_l_x263_:
+1 x112
+1 x113
>= 1

c_l_x264_:
+1 x113
+1 x114
>= 1

c_l_x265_:
+1 x114
+1 x115
>= 1

c_l_x266_:
+1 x115
+1 x116
>= 1

c_l_x267_:
+1 x116
+1 x117
>= 1

c_l_x268_:
+1 x117
+1 x119
>= 1

c_l_x269_:
+1 x118
+1 x129
>= 1

c_l_x270_:
+1 x119
+1 x120
>= 1

c_l_x271_:
+1 x120
+1 x121
>= 1

c_l_x272_:
+1 x121
+1 x122
>= 1

c_l_x273_:
+1 x122
+1 x123
>= 1

c_l_x274_:
+1 x123
+1 x124
>= 1

c_l_x275_:
+1 x124
+1 x125
>= 1

c_l_x276_:
+1 x125
+1 x126
>= 1

c_l_x277_:
+1 x126
+1 x127
>= 1

c_l_x278_:
+1 x127
+1 x128
>= 1

c_l_x279_:
+1 x128
+1 x130
>= 1

c_l_x280_:
+1 x129
+1 x140
>= 1

c_l_x281_:
+1 x130
+1 x131
>= 1

c_l_x282_:
+1 x131
+1 x132
>= 1

c_l_x283_:
+1 x132
+1 x133
>= 1

c_l_x284_:
+1 x133
+1 x134
>= 1

c_l_x285_:
+1 x134
+1 x135
>= 1

c_l_x286_:
+1 x135
+1 x136
>= 1

c_l_x287_:
+1 x136
+1 x137
>= 1

c_l_x288_:
+1 x137
+1 x138
>= 1

c_l_x289_:
+1 x138
+1 x139
>= 1

c_l_x290_:
+1 x139
+1 x141
>= 1

c_l_x291_:
+1 x140
+1 x3
>= 1

c_l_x292_:
+1 x141
+1 x142
>= 1

c_l_x293_:
+1 x142
+1 x143
>= 1

c_l_x294_:
+1 x143
+1 x144
>= 1

c_l_x295_:
+1 x144
+1 x145
>= 1

c_l_x296_:
+1 x145
+1 x146
>= 1

c_l_x297_:
+1 x146
+1 x147
>= 1

c_l_x298_:
+1 x147
+1 x148
>= 1

c_l_x299_:
+1 x148
+1 x149
>= 1

c_l_x300_:
+1 x149
+1 x150
>= 1

c_l_x301_:
+1 x150
+1 x4
>= 1

c_e_ONE_VAR_CONSTANT: 
ONE_VAR_CONSTANT = 1.0

bounds
   0 <= x1 <= 1
   0 <= x2 <= 1
   0 <= x3 <= 1
   0 <= x4 <= 1
   0 <= x5 <= 1
   0 <= x6 <= 1
   0 <= x7 <= 1
   0 <= x8 <= 1
   0 <= x9 <= 1
   0 <= x10 <= 1
   0 <= x11 <= 1
   0 <= x12 <= 1
   0 <= x13 <= 1
   0 <= x14 <= 1
   0 <= x15 <= 1
   0 <= x16 <= 1
   0 <= x17 <= 1
   0 <= x18 <= 1
   0 <= x19 <= 1
   0 <= x20 <= 1
   0 <= x21 <= 1
   0 <= x22 <= 1
   0 <= x23 <= 1
   0 <= x24 <= 1
   0 <= x25 <= 1
   0 <= x26 <= 1
   0 <= x27 <= 1
   0 <= x28 <= 1
   0 <= x29 <= 1
   0 <= x30 <= 1
   0 <= x31 <= 1
   0 <= x32 <= 1
   0 <= x33 <= 1
   0 <= x34 <= 1
   0 <= x35 <= 1
   0 <= x36 <= 1
   0 <= x37 <= 1
   0 <= x38 <= 1
   0 <= x39 <= 1
   0 <= x40 <= 1
   0 <= x41 <= 1
   0 <= x42 <= 1
   0 <= x43 <= 1
   0 <= x44 <= 1
   0 <= x45 <= 1
   0 <= x46 <= 1
   0 <= x47 <= 1
   0 <= x48 <= 1
   0 <= x49 <= 1
   0 <= x50 <= 1
   0 <= x51 <= 1
   0 <= x52 <= 1
   0 <= x53 <= 1
   0 <= x54 <= 1
   0 <= x55 <= 1
   0 <= x56 <= 1
   0 <= x57 <= 1
   0 <= x58 <= 1
   0 <= x59 <= 1
   0 <= x60 <= 1
   0 <= x61 <= 1
   0 <= x62 <= 1
   0 <= x63 <= 1
   0 <= x64 <= 1
   0 <= x65 <= 1
   0 <= x66 <= 1
   0 <= x67 <= 1
   0 <= x68 <= 1
   0 <= x69 <= 1
   0 <= x70 <= 1
   0 <= x71 <= 1
   0 <= x72 <= 1
   0 <= x73 <= 1
   0 <= x74 <= 1
   0 <= x75 <= 1
   0 <= x76 <= 1
   0 <= x77 <= 1
   0 <= x78 <= 1
   0 <= x79 <= 1
   0 <= x80 <= 1
   0 <= x81 <= 1
   0 <= x82 <= 1
   0 <= x83 <= 1
   0 <= x84 <= 1
   0 <= x85 <= 1
   0 <= x86 <= 1
   0 <= x87 <= 1
   0 <= x88 <= 1
   0 <= x89 <= 1
   0 <= x90 <= 1
   0 <= x91 <= 1
   0 <= x92 <= 1
   0 <= x93 <= 1
   0 <= x94 <= 1
   0 <= x95 <= 1
   0 <= x96 <= 1
   0 <= x97 <= 1
   0 <= x98 <= 1
   0 <= x99 <= 1
   0 <= x100 <= 1
   0 <= x101 <= 1
   0 <= x102 <= 1
   0 <= x103 <= 1
   0 <= x104 <= 1
   0 <= x105 <= 1
   0 <= x106 <= 1
   0 <= x107 <= 1
   0 <= x108 <= 1
   0 <= x109 <= 1
   0 <= x110 <= 1
   0 <= x111 <= 1
   0 <= x112 <= 1
   0 <= x113 <= 1
   0 <= x114 <= 1
   0 <= x115 <= 1
   0 <= x116 <= 1
   0 <= x117 <= 1
   0 <= x118 <= 1
   0 <= x119 <= 1
   0 <= x120 <= 1
   0 <= x121 <= 1
   0 <= x122 <= 1
   0 <= x123 <= 1
   0 <= x124 <= 1
   0 <= x125 <= 1
   0 <= x126 <= 1
   0 <= x127 <= 1
   0 <= x128 <= 1
   0 <= x129 <= 1
   0 <= x130 <= 1
   0 <= x131 <= 1
   0 <= x132 <= 1
   0 <= x133 <= 1
   0 <= x134 <= 1
   0 <= x135 <= 1
   0 <= x136 <= 1
   0 <= x137 <= 1
   0 <= x138 <= 1
   0 <= x139 <= 1
   0 <= x140 <= 1
   0 <= x141 <= 1
   0 <= x142 <= 1
   0 <= x143 <= 1
   0 <= x144 <= 1
   0 <= x145 <= 1
   0 <= x146 <= 1
   0 <= x147 <= 1
   0 <= x148 <= 1
   0 <= x149 <= 1
   0 <= x150 <= 1
binary
  x1
  x2
  x3
  x4
  x5
  x6
  x7
  x8
  x9
  x10
  x11
  x12
  x13
  x14
  x15
  x16
  x17
  x18
  x19
  x20
  x21
  x22
  x23
  x24
  x25
  x26
  x27
  x28
  x29
  x30
  x31
  x32
  x33
  x34
  x35
  x36
  x37
  x38
  x39
  x40
  x41
  x42
  x43
  x44
  x45
  x46
  x47
  x48
  x49
  x50
  x51
  x52
  x53
  x54
  x55
  x56
  x57
  x58
  x59
  x60
  x61
  x62
  x63
  x64
  x65
  x66
  x67
  x68
  x69
  x70
  x71
  x72
  x73
  x74
  x75
  x76
  x77
  x78
  x79
  x80
  x81
  x82
  x83
  x84
  x85
  x86
  x87
  x88
  x89
  x90
  x91
  x92
  x93
  x94
  x95
  x96
  x97
  x98
  x99
  x100
  x101
  x102
  x103
  x104
  x105
  x106
  x107
  x108
  x109
  x110
  x111
  x112
  x113
  x114
  x115
  x116
  x117
  x118
  x119
  x120
  x121
  x122
  x123
  x124
  x125
  x126
  x127
  x128
  x129
  x130
  x131
  x132
  x133
  x134
  x135
  x136
  x137
  x138
  x139
  x140
  x141
  x142
  x143
  x144
  x145
  x146
  x147
  x148
  x149
  x150
end
